NAME : kroA100-C-3-1-a__scheduled_bias_same_priority_ls20__24519.tour
COMMENT : Length = 24519.000
COMMENT : Generated by evaluate_ctspd.py for scheduled_bias_same_priority_ls20
TYPE : TOUR
DIMENSION : 100
TOUR_SECTION
28
93
47
91
32
11
15
17
59
74
21
72
36
99
38
24
84
10
18
79
88
16
94
22
70
53
90
49
6
63
1
92
75
19
4
65
66
26
97
56
80
31
89
42
8
67
58
61
81
25
51
87
9
7
57
77
23
98
45
60
62
35
86
27
20
12
55
83
34
29
46
43
3
41
71
100
14
48
30
96
78
52
5
37
33
76
13
95
82
2
54
40
64
44
73
50
39
85
68
69
-1
EOF
